p cnf 326 267
13 0
-14 -21 0
14 21 0
-2 21 -22 0
2 -21 -22 0
-2 -21 22 0
2 21 22 0
-22 0
-1 -21 -23 0
1 21 -23 0
-1 21 23 0
1 -21 23 0
-23 0
-21 -25 0
21 25 0
-1 26 0
-25 26 0
1 25 -26 0
-27 -28 0
27 28 0
-4 28 -29 0
4 -28 -29 0
-4 -28 29 0
4 28 29 0
-29 0
-3 -28 -30 0
3 28 -30 0
-3 28 30 0
3 -28 30 0
-30 0
-28 -32 0
28 32 0
-3 33 0
-32 33 0
3 32 -33 0
-2 4 34 0
2 4 -34 0
2 -4 34 0
-2 -4 -34 0
4 -35 0
2 -35 0
-2 -4 35 0
-36 -37 0
36 37 0
-6 37 -38 0
6 -37 -38 0
-6 -37 38 0
6 37 38 0
-38 0
-5 -37 -39 0
5 37 -39 0
-5 37 39 0
5 -37 39 0
-39 0
-37 -41 0
37 41 0
-5 42 0
-41 42 0
5 41 -42 0
-35 43 0
-34 43 0
34 35 -43 0
-34 -35 -44 0
34 35 -44 0
34 -35 44 0
-34 35 44 0
6 -34 45 0
6 34 -45 0
-6 34 45 0
-6 -34 -45 0
6 -35 46 0
6 35 -46 0
-6 44 46 0
-6 -44 -46 0
6 -47 0
43 -47 0
-6 -43 47 0
-48 -49 0
48 49 0
-8 49 -50 0
8 -49 -50 0
-8 -49 50 0
8 49 50 0
-50 0
-7 -49 -51 0
7 49 -51 0
-7 49 51 0
7 -49 51 0
-51 0
-49 -53 0
49 53 0
-7 54 0
-53 54 0
7 53 -54 0
-46 55 0
-45 55 0
45 46 -55 0
-45 -46 -56 0
45 46 -56 0
45 -46 56 0
-45 46 56 0
47 -57 0
55 -57 0
-47 -55 57 0
-47 -55 -58 0
47 55 -58 0
-47 55 58 0
47 -55 58 0
8 -45 59 0
8 45 -59 0
-8 45 59 0
-8 -45 -59 0
8 -46 60 0
8 46 -60 0
-8 56 60 0
-8 -56 -60 0
8 -47 61 0
8 47 -61 0
-8 -58 61 0
-8 58 -61 0
8 -62 0
57 -62 0
-8 -57 62 0
-63 -64 0
63 64 0
-10 64 -65 0
10 -64 -65 0
-10 -64 65 0
10 64 65 0
-65 0
-9 -64 -66 0
9 64 -66 0
-9 64 66 0
9 -64 66 0
-66 0
-64 -68 0
64 68 0
-9 69 0
-68 69 0
9 68 -69 0
60 -70 0
59 -70 0
-59 -60 70 0
-59 -60 -71 0
59 60 -71 0
59 -60 71 0
-59 60 71 0
-61 72 0
-70 72 0
61 70 -72 0
-61 -70 -73 0
61 70 -73 0
-61 70 73 0
61 -70 73 0
62 -74 0
72 -74 0
-62 -72 74 0
-62 -72 -75 0
62 72 -75 0
-62 72 75 0
62 -72 75 0
10 -59 76 0
10 59 -76 0
-10 59 76 0
-10 -59 -76 0
10 -60 77 0
10 60 -77 0
-10 -71 77 0
-10 71 -77 0
10 -61 78 0
10 61 -78 0
-10 73 78 0
-10 -73 -78 0
10 -62 79 0
10 62 -79 0
-10 -75 79 0
-10 75 -79 0
10 -80 0
74 -80 0
-10 -74 80 0
-81 -82 0
81 82 0
-12 82 -83 0
12 -82 -83 0
-12 -82 83 0
12 82 83 0
-83 0
-11 -82 -84 0
11 82 -84 0
-11 82 84 0
11 -82 84 0
-84 0
-82 -86 0
82 86 0
-11 87 0
-86 87 0
11 86 -87 0
77 -88 0
76 -88 0
-76 -77 88 0
-76 -77 -89 0
76 77 -89 0
76 -77 89 0
-76 77 89 0
-78 90 0
-88 90 0
78 88 -90 0
-78 -88 -91 0
78 88 -91 0
-78 88 91 0
78 -88 91 0
79 -92 0
90 -92 0
-79 -90 92 0
-79 -90 -93 0
79 90 -93 0
-79 90 93 0
79 -90 93 0
80 -94 0
92 -94 0
-80 -92 94 0
-80 -92 -95 0
80 92 -95 0
-80 92 95 0
80 -92 95 0
12 -76 96 0
12 76 -96 0
-12 76 96 0
-12 -76 -96 0
12 -77 97 0
12 77 -97 0
-12 -89 97 0
-12 89 -97 0
12 -78 98 0
12 78 -98 0
-12 91 98 0
-12 -91 -98 0
12 -79 99 0
12 79 -99 0
-12 -93 99 0
-12 93 -99 0
12 -80 100 0
12 80 -100 0
-12 -95 100 0
-12 95 -100 0
12 -101 0
94 -101 0
-12 -94 101 0
26 0
33 0
42 0
54 0
69 0
87 0
-320 -322 -324 0
320 322 -324 0
-320 322 324 0
320 -322 324 0
-321 -323 -325 0
321 323 -325 0
-321 323 325 0
321 -323 325 0
-324 -326 0
-325 -326 0
324 325 326 0
-13 326 0
13 -326 0
c FALSE __CPROVER_malloc_is_new_array#1
c 271 main::1::I!0@1#1
c FALSE main::1::I!0@1#2
c 2 main::1::I!0@1#3
c 24 main::$tmp::tmp_if_expr$2!0@1#1
c 1 goto_symex::\guard#1
c TRUE main::$tmp::tmp_if_expr$2!0@1#2
c 24 main::$tmp::tmp_if_expr$2!0@1#3
c 25 main::$tmp::tmp_if_expr$2!0@1#4
c 26 main::$tmp::tmp_if_expr$2!0@1#5
c 4 main::1::I!0@1#4
c 31 main::$tmp::tmp_if_expr$2!0@1#7
c 3 goto_symex::\guard#2
c TRUE main::$tmp::tmp_if_expr$2!0@1#8
c 31 main::$tmp::tmp_if_expr$2!0@1#9
c 32 main::$tmp::tmp_if_expr$2!0@1#10
c 33 main::$tmp::tmp_if_expr$2!0@1#11
c 6 main::1::I!0@1#5
c 40 main::$tmp::tmp_if_expr$2!0@1#13
c 5 goto_symex::\guard#3
c TRUE main::$tmp::tmp_if_expr$2!0@1#14
c 40 main::$tmp::tmp_if_expr$2!0@1#15
c 41 main::$tmp::tmp_if_expr$2!0@1#16
c 42 main::$tmp::tmp_if_expr$2!0@1#17
c 8 main::1::I!0@1#6
c 52 main::$tmp::tmp_if_expr$2!0@1#19
c 7 goto_symex::\guard#4
c TRUE main::$tmp::tmp_if_expr$2!0@1#20
c 52 main::$tmp::tmp_if_expr$2!0@1#21
c 53 main::$tmp::tmp_if_expr$2!0@1#22
c 54 main::$tmp::tmp_if_expr$2!0@1#23
c 10 main::1::I!0@1#7
c 67 main::$tmp::tmp_if_expr$2!0@1#25
c 9 goto_symex::\guard#5
c TRUE main::$tmp::tmp_if_expr$2!0@1#26
c 67 main::$tmp::tmp_if_expr$2!0@1#27
c 68 main::$tmp::tmp_if_expr$2!0@1#28
c 69 main::$tmp::tmp_if_expr$2!0@1#29
c 12 main::1::I!0@1#8
c 85 main::$tmp::tmp_if_expr$2!0@1#31
c 11 goto_symex::\guard#6
c TRUE main::$tmp::tmp_if_expr$2!0@1#32
c 85 main::$tmp::tmp_if_expr$2!0@1#33
c 86 main::$tmp::tmp_if_expr$2!0@1#34
c 87 main::$tmp::tmp_if_expr$2!0@1#35
c 102 main::$tmp::tmp_if_expr$2!0@1#36
c 102 main::$tmp::tmp_if_expr$2!0@1#38
c __CPROVER_next_thread_id#1 FALSE FALSE FALSE FALSE FALSE FALSE FALSE FALSE FALSE FALSE FALSE FALSE FALSE FALSE FALSE FALSE FALSE FALSE FALSE FALSE FALSE FALSE FALSE FALSE FALSE FALSE FALSE FALSE FALSE FALSE FALSE FALSE FALSE FALSE FALSE FALSE FALSE FALSE FALSE FALSE FALSE FALSE FALSE FALSE FALSE FALSE FALSE FALSE FALSE FALSE FALSE FALSE FALSE FALSE FALSE FALSE FALSE FALSE FALSE FALSE FALSE FALSE FALSE FALSE
c main::1::global_consumption!0@1#9 -45 -56 58 57 FALSE FALSE FALSE FALSE FALSE FALSE FALSE FALSE FALSE FALSE FALSE FALSE FALSE FALSE FALSE FALSE FALSE FALSE FALSE FALSE FALSE FALSE FALSE FALSE FALSE FALSE FALSE FALSE
c __CPROVER_pipe_count#1 FALSE FALSE FALSE FALSE FALSE FALSE FALSE FALSE FALSE FALSE FALSE FALSE FALSE FALSE FALSE FALSE FALSE FALSE FALSE FALSE FALSE FALSE FALSE FALSE FALSE FALSE FALSE FALSE FALSE FALSE FALSE FALSE
c main::1::global_consumption!0@1#10 59 60 61 62 FALSE FALSE FALSE FALSE FALSE FALSE FALSE FALSE FALSE FALSE FALSE FALSE FALSE FALSE FALSE FALSE FALSE FALSE FALSE FALSE FALSE FALSE FALSE FALSE FALSE FALSE FALSE FALSE
c main::1::i!0@1#6 FALSE FALSE TRUE FALSE FALSE FALSE FALSE FALSE FALSE FALSE FALSE FALSE FALSE FALSE FALSE FALSE FALSE FALSE FALSE FALSE FALSE FALSE FALSE FALSE FALSE FALSE FALSE FALSE FALSE FALSE FALSE FALSE
c __CPROVER_rounding_mode!0#1 FALSE FALSE FALSE FALSE FALSE FALSE FALSE FALSE FALSE FALSE FALSE FALSE FALSE FALSE FALSE FALSE FALSE FALSE FALSE FALSE FALSE FALSE FALSE FALSE FALSE FALSE FALSE FALSE FALSE FALSE FALSE FALSE
c __CPROVER_thread_id!0#1 FALSE FALSE FALSE FALSE FALSE FALSE FALSE FALSE FALSE FALSE FALSE FALSE FALSE FALSE FALSE FALSE FALSE FALSE FALSE FALSE FALSE FALSE FALSE FALSE FALSE FALSE FALSE FALSE FALSE FALSE FALSE FALSE FALSE FALSE FALSE FALSE FALSE FALSE FALSE FALSE FALSE FALSE FALSE FALSE FALSE FALSE FALSE FALSE FALSE FALSE FALSE FALSE FALSE FALSE FALSE FALSE FALSE FALSE FALSE FALSE FALSE FALSE FALSE FALSE
c large_consumption#1 TRUE FALSE TRUE FALSE FALSE FALSE FALSE FALSE FALSE FALSE FALSE FALSE FALSE FALSE FALSE FALSE FALSE FALSE FALSE FALSE FALSE FALSE FALSE FALSE FALSE FALSE FALSE FALSE FALSE FALSE FALSE FALSE
c medium_consumption#1 TRUE TRUE FALSE FALSE FALSE FALSE FALSE FALSE FALSE FALSE FALSE FALSE FALSE FALSE FALSE FALSE FALSE FALSE FALSE FALSE FALSE FALSE FALSE FALSE FALSE FALSE FALSE FALSE FALSE FALSE FALSE FALSE
c small_consumption#1 TRUE FALSE FALSE FALSE FALSE FALSE FALSE FALSE FALSE FALSE FALSE FALSE FALSE FALSE FALSE FALSE FALSE FALSE FALSE FALSE FALSE FALSE FALSE FALSE FALSE FALSE FALSE FALSE FALSE FALSE FALSE FALSE
c main::1::global_consumption!0@1#11 -59 71 -73 75 74 FALSE FALSE FALSE FALSE FALSE FALSE FALSE FALSE FALSE FALSE FALSE FALSE FALSE FALSE FALSE FALSE FALSE FALSE FALSE FALSE FALSE FALSE FALSE FALSE FALSE FALSE FALSE
c main::1::global_consumption!0@1#12 76 77 78 79 80 FALSE FALSE FALSE FALSE FALSE FALSE FALSE FALSE FALSE FALSE FALSE FALSE FALSE FALSE FALSE FALSE FALSE FALSE FALSE FALSE FALSE FALSE FALSE FALSE FALSE FALSE FALSE
c main::1::i!0@1#7 TRUE FALSE TRUE FALSE FALSE FALSE FALSE FALSE FALSE FALSE FALSE FALSE FALSE FALSE FALSE FALSE FALSE FALSE FALSE FALSE FALSE FALSE FALSE FALSE FALSE FALSE FALSE FALSE FALSE FALSE FALSE FALSE
c main::1::global_consumption!0@1#1 111 112 113 114 115 116 117 118 119 120 121 122 123 124 125 126 127 128 129 130 131 132 133 134 135 136 137 138 139 140 141 142
c main::1::global_consumption!0@1#13 -76 89 -91 93 95 94 FALSE FALSE FALSE FALSE FALSE FALSE FALSE FALSE FALSE FALSE FALSE FALSE FALSE FALSE FALSE FALSE FALSE FALSE FALSE FALSE FALSE FALSE FALSE FALSE FALSE FALSE
c main::1::global_consumption!0@1#2 FALSE FALSE FALSE FALSE FALSE FALSE FALSE FALSE FALSE FALSE FALSE FALSE FALSE FALSE FALSE FALSE FALSE FALSE FALSE FALSE FALSE FALSE FALSE FALSE FALSE FALSE FALSE FALSE FALSE FALSE FALSE FALSE
c main::1::i!0@1#1 143 144 145 146 147 148 149 150 151 152 153 154 155 156 157 158 159 160 161 162 163 164 165 166 167 168 169 170 171 172 173 174
c main::1::global_consumption!0@1#14 96 97 98 99 100 101 FALSE FALSE FALSE FALSE FALSE FALSE FALSE FALSE FALSE FALSE FALSE FALSE FALSE FALSE FALSE FALSE FALSE FALSE FALSE FALSE FALSE FALSE FALSE FALSE FALSE FALSE
c main::1::i!0@1#8 FALSE TRUE TRUE FALSE FALSE FALSE FALSE FALSE FALSE FALSE FALSE FALSE FALSE FALSE FALSE FALSE FALSE FALSE FALSE FALSE FALSE FALSE FALSE FALSE FALSE FALSE FALSE FALSE FALSE FALSE FALSE FALSE
c main::1::i!0@1#2 FALSE FALSE FALSE FALSE FALSE FALSE FALSE FALSE FALSE FALSE FALSE FALSE FALSE FALSE FALSE FALSE FALSE FALSE FALSE FALSE FALSE FALSE FALSE FALSE FALSE FALSE FALSE FALSE FALSE FALSE FALSE FALSE
c main::1::S!0@1#1 175 176 177 178 179 180 181 182 183 184 185 186 187 188 189 190 191 192 193 194 195 196 197 198 199 200 201 202 203 204 205 206
c main::1::S!0@1#2 FALSE TRUE FALSE FALSE FALSE FALSE FALSE FALSE FALSE FALSE FALSE FALSE FALSE FALSE FALSE FALSE FALSE FALSE FALSE FALSE FALSE FALSE FALSE FALSE FALSE FALSE FALSE FALSE FALSE FALSE FALSE FALSE
c main::1::M!0@1#1 207 208 209 210 211 212 213 214 215 216 217 218 219 220 221 222 223 224 225 226 227 228 229 230 231 232 233 234 235 236 237 238
c main::1::M!0@1#2 FALSE TRUE FALSE FALSE FALSE FALSE FALSE FALSE FALSE FALSE FALSE FALSE FALSE FALSE FALSE FALSE FALSE FALSE FALSE FALSE FALSE FALSE FALSE FALSE FALSE FALSE FALSE FALSE FALSE FALSE FALSE FALSE
c main::1::L!0@1#1 239 240 241 242 243 244 245 246 247 248 249 250 251 252 253 254 255 256 257 258 259 260 261 262 263 264 265 266 267 268 269 270
c main::1::L!0@1#2 FALSE TRUE FALSE FALSE FALSE FALSE FALSE FALSE FALSE FALSE FALSE FALSE FALSE FALSE FALSE FALSE FALSE FALSE FALSE FALSE FALSE FALSE FALSE FALSE FALSE FALSE FALSE FALSE FALSE FALSE FALSE FALSE
c main::1::global_consumption!0@1#3 TRUE FALSE FALSE FALSE FALSE FALSE FALSE FALSE FALSE FALSE FALSE FALSE FALSE FALSE FALSE FALSE FALSE FALSE FALSE FALSE FALSE FALSE FALSE FALSE FALSE FALSE FALSE FALSE FALSE FALSE FALSE FALSE
c main::1::global_consumption!0@1#4 2 FALSE FALSE FALSE FALSE FALSE FALSE FALSE FALSE FALSE FALSE FALSE FALSE FALSE FALSE FALSE FALSE FALSE FALSE FALSE FALSE FALSE FALSE FALSE FALSE FALSE FALSE FALSE FALSE FALSE FALSE FALSE
c main::1::i!0@1#3 TRUE FALSE FALSE FALSE FALSE FALSE FALSE FALSE FALSE FALSE FALSE FALSE FALSE FALSE FALSE FALSE FALSE FALSE FALSE FALSE FALSE FALSE FALSE FALSE FALSE FALSE FALSE FALSE FALSE FALSE FALSE FALSE
c main::1::global_consumption!0@1#5 -2 2 FALSE FALSE FALSE FALSE FALSE FALSE FALSE FALSE FALSE FALSE FALSE FALSE FALSE FALSE FALSE FALSE FALSE FALSE FALSE FALSE FALSE FALSE FALSE FALSE FALSE FALSE FALSE FALSE FALSE FALSE
c main::1::global_consumption!0@1#6 34 35 FALSE FALSE FALSE FALSE FALSE FALSE FALSE FALSE FALSE FALSE FALSE FALSE FALSE FALSE FALSE FALSE FALSE FALSE FALSE FALSE FALSE FALSE FALSE FALSE FALSE FALSE FALSE FALSE FALSE FALSE
c main::1::i!0@1#4 FALSE TRUE FALSE FALSE FALSE FALSE FALSE FALSE FALSE FALSE FALSE FALSE FALSE FALSE FALSE FALSE FALSE FALSE FALSE FALSE FALSE FALSE FALSE FALSE FALSE FALSE FALSE FALSE FALSE FALSE FALSE FALSE
c main::1::global_consumption!0@1#7 -34 -44 43 FALSE FALSE FALSE FALSE FALSE FALSE FALSE FALSE FALSE FALSE FALSE FALSE FALSE FALSE FALSE FALSE FALSE FALSE FALSE FALSE FALSE FALSE FALSE FALSE FALSE FALSE FALSE FALSE FALSE
c main::1::global_consumption!0@1#8 45 46 47 FALSE FALSE FALSE FALSE FALSE FALSE FALSE FALSE FALSE FALSE FALSE FALSE FALSE FALSE FALSE FALSE FALSE FALSE FALSE FALSE FALSE FALSE FALSE FALSE FALSE FALSE FALSE FALSE FALSE
c main::1::i!0@1#5 TRUE TRUE FALSE FALSE FALSE FALSE FALSE FALSE FALSE FALSE FALSE FALSE FALSE FALSE FALSE FALSE FALSE FALSE FALSE FALSE FALSE FALSE FALSE FALSE FALSE FALSE FALSE FALSE FALSE FALSE FALSE FALSE
c __CPROVER_malloc_size#1 FALSE FALSE FALSE FALSE FALSE FALSE FALSE FALSE FALSE FALSE FALSE FALSE FALSE FALSE FALSE FALSE FALSE FALSE FALSE FALSE FALSE FALSE FALSE FALSE FALSE FALSE FALSE FALSE FALSE FALSE FALSE FALSE FALSE FALSE FALSE FALSE FALSE FALSE FALSE FALSE FALSE FALSE FALSE FALSE FALSE FALSE FALSE FALSE FALSE FALSE FALSE FALSE FALSE FALSE FALSE FALSE FALSE FALSE FALSE FALSE FALSE FALSE FALSE FALSE
